 &control
    calculation = 'bands',
    prefix='C2H2',
    nstep=1000,
    verbosity= 'low',
    pseudo_dir = './',
    outdir='./',
!    tefield = .true.
 /
 &system    
    ibrav=12,
    a = 2.538,
    b = 2.538,
    c = 20.000,
    cosab = -0.500000, 
    nat=  4, 
    ntyp= 2,
    ecutwfc =60,
!    ecutrho = 480.0, 
!    input_dft = 'PBE',
    nbnd =12, 
!    occupations='smearing',
!    degauss=1.0d-03,
!    edir = 1,
!    emaxpos = 0.9d0,
!    eopreg = 0.1d0,
!    eamp = 0.2d0,
!    smearing='marzari-vanderbilt',
/
 &electrons
    conv_thr = 1d-12,
!    mixing_mode = 'plain',
!    electron_maxstep = 100,
!    diagonalization = 'david',
!    mixing_beta     = 0.7
/
ATOMIC_SPECIES
  C  12.011 C.pbe-n-rrkjus_psl.1.0.0.UPF
  H  1.0079 H.pbe-rrkjus_psl.1.0.0.UPF
ATOMIC_POSITIONS (angstrom)
C -0.000000127  1.465495893  10.000196385
C  1.269000127  0.732827575  10.459793118
H -0.000000127  1.465530658   8.888518366
H  1.269000127  0.732792416  11.571492131
K_POINTS crystal
144
  0.00000000  0.00000000  0.00000000  6.944444e-03
  0.00000000  0.08333333  0.00000000  6.944444e-03
  0.00000000  0.16666667  0.00000000  6.944444e-03
  0.00000000  0.25000000  0.00000000  6.944444e-03
  0.00000000  0.33333333  0.00000000  6.944444e-03
  0.00000000  0.41666667  0.00000000  6.944444e-03
  0.00000000  0.50000000  0.00000000  6.944444e-03
  0.00000000  0.58333333  0.00000000  6.944444e-03
  0.00000000  0.66666667  0.00000000  6.944444e-03
  0.00000000  0.75000000  0.00000000  6.944444e-03
  0.00000000  0.83333333  0.00000000  6.944444e-03
  0.00000000  0.91666667  0.00000000  6.944444e-03
  0.08333333  0.00000000  0.00000000  6.944444e-03
  0.08333333  0.08333333  0.00000000  6.944444e-03
  0.08333333  0.16666667  0.00000000  6.944444e-03
  0.08333333  0.25000000  0.00000000  6.944444e-03
  0.08333333  0.33333333  0.00000000  6.944444e-03
  0.08333333  0.41666667  0.00000000  6.944444e-03
  0.08333333  0.50000000  0.00000000  6.944444e-03
  0.08333333  0.58333333  0.00000000  6.944444e-03
  0.08333333  0.66666667  0.00000000  6.944444e-03
  0.08333333  0.75000000  0.00000000  6.944444e-03
  0.08333333  0.83333333  0.00000000  6.944444e-03
  0.08333333  0.91666667  0.00000000  6.944444e-03
  0.16666667  0.00000000  0.00000000  6.944444e-03
  0.16666667  0.08333333  0.00000000  6.944444e-03
  0.16666667  0.16666667  0.00000000  6.944444e-03
  0.16666667  0.25000000  0.00000000  6.944444e-03
  0.16666667  0.33333333  0.00000000  6.944444e-03
  0.16666667  0.41666667  0.00000000  6.944444e-03
  0.16666667  0.50000000  0.00000000  6.944444e-03
  0.16666667  0.58333333  0.00000000  6.944444e-03
  0.16666667  0.66666667  0.00000000  6.944444e-03
  0.16666667  0.75000000  0.00000000  6.944444e-03
  0.16666667  0.83333333  0.00000000  6.944444e-03
  0.16666667  0.91666667  0.00000000  6.944444e-03
  0.25000000  0.00000000  0.00000000  6.944444e-03
  0.25000000  0.08333333  0.00000000  6.944444e-03
  0.25000000  0.16666667  0.00000000  6.944444e-03
  0.25000000  0.25000000  0.00000000  6.944444e-03
  0.25000000  0.33333333  0.00000000  6.944444e-03
  0.25000000  0.41666667  0.00000000  6.944444e-03
  0.25000000  0.50000000  0.00000000  6.944444e-03
  0.25000000  0.58333333  0.00000000  6.944444e-03
  0.25000000  0.66666667  0.00000000  6.944444e-03
  0.25000000  0.75000000  0.00000000  6.944444e-03
  0.25000000  0.83333333  0.00000000  6.944444e-03
  0.25000000  0.91666667  0.00000000  6.944444e-03
  0.33333333  0.00000000  0.00000000  6.944444e-03
  0.33333333  0.08333333  0.00000000  6.944444e-03
  0.33333333  0.16666667  0.00000000  6.944444e-03
  0.33333333  0.25000000  0.00000000  6.944444e-03
  0.33333333  0.33333333  0.00000000  6.944444e-03
  0.33333333  0.41666667  0.00000000  6.944444e-03
  0.33333333  0.50000000  0.00000000  6.944444e-03
  0.33333333  0.58333333  0.00000000  6.944444e-03
  0.33333333  0.66666667  0.00000000  6.944444e-03
  0.33333333  0.75000000  0.00000000  6.944444e-03
  0.33333333  0.83333333  0.00000000  6.944444e-03
  0.33333333  0.91666667  0.00000000  6.944444e-03
  0.41666667  0.00000000  0.00000000  6.944444e-03
  0.41666667  0.08333333  0.00000000  6.944444e-03
  0.41666667  0.16666667  0.00000000  6.944444e-03
  0.41666667  0.25000000  0.00000000  6.944444e-03
  0.41666667  0.33333333  0.00000000  6.944444e-03
  0.41666667  0.41666667  0.00000000  6.944444e-03
  0.41666667  0.50000000  0.00000000  6.944444e-03
  0.41666667  0.58333333  0.00000000  6.944444e-03
  0.41666667  0.66666667  0.00000000  6.944444e-03
  0.41666667  0.75000000  0.00000000  6.944444e-03
  0.41666667  0.83333333  0.00000000  6.944444e-03
  0.41666667  0.91666667  0.00000000  6.944444e-03
  0.50000000  0.00000000  0.00000000  6.944444e-03
  0.50000000  0.08333333  0.00000000  6.944444e-03
  0.50000000  0.16666667  0.00000000  6.944444e-03
  0.50000000  0.25000000  0.00000000  6.944444e-03
  0.50000000  0.33333333  0.00000000  6.944444e-03
  0.50000000  0.41666667  0.00000000  6.944444e-03
  0.50000000  0.50000000  0.00000000  6.944444e-03
  0.50000000  0.58333333  0.00000000  6.944444e-03
  0.50000000  0.66666667  0.00000000  6.944444e-03
  0.50000000  0.75000000  0.00000000  6.944444e-03
  0.50000000  0.83333333  0.00000000  6.944444e-03
  0.50000000  0.91666667  0.00000000  6.944444e-03
  0.58333333  0.00000000  0.00000000  6.944444e-03
  0.58333333  0.08333333  0.00000000  6.944444e-03
  0.58333333  0.16666667  0.00000000  6.944444e-03
  0.58333333  0.25000000  0.00000000  6.944444e-03
  0.58333333  0.33333333  0.00000000  6.944444e-03
  0.58333333  0.41666667  0.00000000  6.944444e-03
  0.58333333  0.50000000  0.00000000  6.944444e-03
  0.58333333  0.58333333  0.00000000  6.944444e-03
  0.58333333  0.66666667  0.00000000  6.944444e-03
  0.58333333  0.75000000  0.00000000  6.944444e-03
  0.58333333  0.83333333  0.00000000  6.944444e-03
  0.58333333  0.91666667  0.00000000  6.944444e-03
  0.66666667  0.00000000  0.00000000  6.944444e-03
  0.66666667  0.08333333  0.00000000  6.944444e-03
  0.66666667  0.16666667  0.00000000  6.944444e-03
  0.66666667  0.25000000  0.00000000  6.944444e-03
  0.66666667  0.33333333  0.00000000  6.944444e-03
  0.66666667  0.41666667  0.00000000  6.944444e-03
  0.66666667  0.50000000  0.00000000  6.944444e-03
  0.66666667  0.58333333  0.00000000  6.944444e-03
  0.66666667  0.66666667  0.00000000  6.944444e-03
  0.66666667  0.75000000  0.00000000  6.944444e-03
  0.66666667  0.83333333  0.00000000  6.944444e-03
  0.66666667  0.91666667  0.00000000  6.944444e-03
  0.75000000  0.00000000  0.00000000  6.944444e-03
  0.75000000  0.08333333  0.00000000  6.944444e-03
  0.75000000  0.16666667  0.00000000  6.944444e-03
  0.75000000  0.25000000  0.00000000  6.944444e-03
  0.75000000  0.33333333  0.00000000  6.944444e-03
  0.75000000  0.41666667  0.00000000  6.944444e-03
  0.75000000  0.50000000  0.00000000  6.944444e-03
  0.75000000  0.58333333  0.00000000  6.944444e-03
  0.75000000  0.66666667  0.00000000  6.944444e-03
  0.75000000  0.75000000  0.00000000  6.944444e-03
  0.75000000  0.83333333  0.00000000  6.944444e-03
  0.75000000  0.91666667  0.00000000  6.944444e-03
  0.83333333  0.00000000  0.00000000  6.944444e-03
  0.83333333  0.08333333  0.00000000  6.944444e-03
  0.83333333  0.16666667  0.00000000  6.944444e-03
  0.83333333  0.25000000  0.00000000  6.944444e-03
  0.83333333  0.33333333  0.00000000  6.944444e-03
  0.83333333  0.41666667  0.00000000  6.944444e-03
  0.83333333  0.50000000  0.00000000  6.944444e-03
  0.83333333  0.58333333  0.00000000  6.944444e-03
  0.83333333  0.66666667  0.00000000  6.944444e-03
  0.83333333  0.75000000  0.00000000  6.944444e-03
  0.83333333  0.83333333  0.00000000  6.944444e-03
  0.83333333  0.91666667  0.00000000  6.944444e-03
  0.91666667  0.00000000  0.00000000  6.944444e-03
  0.91666667  0.08333333  0.00000000  6.944444e-03
  0.91666667  0.16666667  0.00000000  6.944444e-03
  0.91666667  0.25000000  0.00000000  6.944444e-03
  0.91666667  0.33333333  0.00000000  6.944444e-03
  0.91666667  0.41666667  0.00000000  6.944444e-03
  0.91666667  0.50000000  0.00000000  6.944444e-03
  0.91666667  0.58333333  0.00000000  6.944444e-03
  0.91666667  0.66666667  0.00000000  6.944444e-03
  0.91666667  0.75000000  0.00000000  6.944444e-03
  0.91666667  0.83333333  0.00000000  6.944444e-03
  0.91666667  0.91666667  0.00000000  6.944444e-03

