 &control
    calculation = 'scf',
    prefix='C2H2',
    verbosity= 'low',
    pseudo_dir = './',
    outdir='./',
!    tefield = .true.
/
 &system    
    ibrav=12,
    a = 2.538,
    b = 2.538,
    c = 20.000,
    cosab = -0.500000, 
    nat=  4, 
    ntyp= 2,
    ecutwfc =60,
    nbnd = 12,
!    occupations='smearing',
!    degauss=1.0d-03,
!    edir = 1,
!    emaxpos = 0.5d0,
!    eopreg = 0.1d0,
!    eamp = 0.05d0,
!    smearing='marzari-vanderbilt',
!    vdw_corr = 'grimme-d2',
/
 &electrons
    conv_thr = 1d-012,
!    diagonalization = 'david',
!    mixing_beta     = 0.7
/
ATOMIC_SPECIES
C  12.011 C.pbe-n-rrkjus_psl.1.0.0.UPF
H  1.0079 H.pbe-rrkjus_psl.1.0.0.UPF
ATOMIC_POSITIONS (angstrom)
C -0.000000127  1.465495893  10.000196385
C  1.269000127  0.732827575  10.459793118
H -0.000000127  1.465530658   8.888518366
H  1.269000127  0.732792416  11.571492131
K_POINTS automatic
12 12 1 0 0 0

